nbV = 12;
nbE = 11;
map = [|false,false,false,false,false,false,false,false,false,false,true
|false,true,true,false,false,false,false,false,false,false,false
|true,false,false,false,false,false,false,false,false,false,false
|false,false,true,false,false,false,false,false,false,false,false
|false,false,false,false,false,false,false,true,true,false,false
|false,false,false,true,true,false,false,false,false,false,false
|false,false,false,true,false,true,false,false,false,false,false
|false,false,false,false,false,false,false,false,false,true,false
|false,false,false,false,false,false,true,false,true,false,false
|true,false,false,false,true,false,false,false,false,false,false
|false,false,false,false,false,true,true,false,false,false,true
|false,true,false,false,false,false,false,true,false,true,false
|];
endnodes = [|false,false,true,false,false,false,false,false,false,true,false,false
|false,true,false,false,false,false,false,false,false,false,false,true
|false,true,false,true,false,false,false,false,false,false,false,false
|false,false,false,false,false,true,true,false,false,false,false,false
|false,false,false,false,false,true,false,false,false,true,false,false
|false,false,false,false,false,false,true,false,false,false,true,false
|false,false,false,false,false,false,false,false,true,false,true,false
|false,false,false,false,true,false,false,false,false,false,false,true
|false,false,false,false,true,false,false,false,true,false,false,false
|false,false,false,false,false,false,false,true,false,false,false,true
|true,false,false,false,false,false,false,false,false,false,true,false
|];
terminals = {1,2,4,5,8,9,10};
link_cost = [953301,1998529,2121472,653293,2389030,881904,583784,2439991,2545642,1448199,2803771];
